NAME : portcgen-25-8
COMMENT : portcgen N=25, seed=8
TYPE : TSP
DIMENSION : 25
EDGE_WEIGHT_TYPE : EUC_2D
NODE_COORD_SECTION
1 -189704 11526
2 129766 129076
3 7665 -315668
4 -45410 -64368
5 -351324 118028
6 -14924 30281
7 -42534 -33343
8 151044 -173980
9 132830 -233843
10 105971 77281
11 50603 26529
12 95384 -140741
13 -82400 1401
14 -70150 145868
15 -105219 393525
16 -174650 297296
17 -245049 205749
18 -48012 142725
19 50571 -299918
20 -81154 228146
21 64621 262944
22 -150272 -66018
23 102051 -47263
24 43223 -138667
25 -142189 463735
